Cu Ga
 1.0000000000000000
     5.5988714399999999    0.0000000000000000    0.0000000000000003
    -0.0000000000000008   12.8812161676146228    0.3697049909505789
     0.0000000000000000    0.0000000000000000   25.2244491072028190
 Cu  Ga 
  16  32
Direct
  0.5000000000000000  0.6107838645000000  0.6833333333333333
 -0.0000000000000000  0.4107838644999999  0.3833333333333333
 -0.0000000000000000  0.9107838644999998  0.3833333333333332
  0.5000000000000000  0.4107838644999999  0.3833333333333333
 -0.0000000000000000  0.3107838644999999  0.4833333333333333
  0.0000000000000000  0.8107838645000001  0.4833333333333333
  0.5000000000000000  0.3107838644999999  0.4833333333333333
  0.4999999999999999  0.9107838644999998  0.3833333333333333
 -0.0000000000000000  0.2107838644999999  0.5833333333333335
 -0.0000000000000000  0.7107838645000000  0.5833333333333334
  0.5000000000000000  0.2107838644999999  0.5833333333333335
  0.5000000000000000  0.7107838645000000  0.5833333333333335
 -0.0000000000000000  0.1107838645000000  0.6833333333333333
  0.0000000000000000  0.6107838645000000  0.6833333333333333
  0.4999999999999999  0.8107838645000001  0.4833333333333334
  0.5000000000000000  0.1107838645000000  0.6833333333333333
  0.2500000000000000  0.2745129485000000  0.6617656043333333
  0.7500000000000000  0.5470547805000000  0.6049010623333333
  0.7500000000000000  0.0470547805000000  0.6049010623333333
  0.2500000000000000  0.5470547805000000  0.6049010623333333
  0.2500000000000000  0.0470547805000000  0.6049010623333333
  0.7500000000000000  0.7745129485000000  0.6617656043333333
  0.7500000000000000  0.2745129485000000  0.6617656043333333
  0.2500000000000000  0.7745129485000000  0.6617656043333333
  0.2500000000000000  0.0745129485000000  0.3617656043333333
  0.2500000000000000  0.6470547804999999  0.5049010623333334
  0.2500000000000000  0.5745129484999999  0.3617656043333333
  0.7500000000000000  0.0745129485000000  0.3617656043333333
  0.7500000000000000  0.5745129484999999  0.3617656043333334
  0.2500000000000000  0.3470547804999999  0.3049010623333334
  0.2500000000000000  0.8470547804999999  0.3049010623333334
  0.7500000000000000  0.3470547804999999  0.3049010623333334
  0.7500000000000000  0.8470547804999999  0.3049010623333334
  0.2500000000000000  0.4745129484999999  0.4617656043333333
  0.2500000000000000  0.9745129484999999  0.4617656043333333
  0.7500000000000000  0.1470547805000000  0.5049010623333334
  0.7500000000000000  0.4745129484999999  0.4617656043333333
  0.2500000000000000  0.2470547805000000  0.4049010623333333
  0.2500000000000000  0.7470547805000000  0.4049010623333333
  0.7500000000000000  0.2470547805000000  0.4049010623333333
  0.7500000000000000  0.7470547805000000  0.4049010623333333
  0.2500000000000000  0.3745129484999999  0.5617656043333333
  0.2500000000000000  0.8745129484999999  0.5617656043333333
  0.7500000000000000  0.3745129484999999  0.5617656043333333
  0.7500000000000000  0.8745129484999999  0.5617656043333333
  0.2500000000000000  0.1470547805000000  0.5049010623333334
  0.7500000000000000  0.9745129484999999  0.4617656043333334
  0.7500000000000000  0.6470547804999999  0.5049010623333334
