Re Ta
 1.0000000000000000
     9.1304232385421820    0.0000000000000000   -0.6982209159396638
     4.5919087632434366    7.9225320998033730    0.0000000000000006
     0.0000000000000000    0.0000000000000000   30.0234993854054650
 Re  Ta 
  12  36
Direct
  0.6093749999999999  0.9765625000000000  0.5781250000000000
  0.3593750000000001  0.3515625000000001  0.3281250000000000
  0.3593750000000001  0.8515625000000001  0.3281250000000000
  0.8593750000000000  0.3515625000000001  0.3281249999999999
  0.8593750000000000  0.8515625000000001  0.3281250000000000
  0.2343750000000001  0.1640625000000000  0.4531250000000000
  0.6093750000000000  0.4765624999999999  0.5781250000000000
  0.7343750000000000  0.1640625000000000  0.4531250000000000
  0.7343750000000000  0.6640625000000000  0.4531250000000000
  0.1093750000000001  0.4765624999999999  0.5781250000000000
  0.1093750000000001  0.9765625000000000  0.5781250000000000
  0.2343750000000001  0.6640625000000000  0.4531250000000000
  0.1406249999999999  0.9609374999999999  0.6718750000000000
  0.6406249999999999  0.4609375000000000  0.6718750000000000
  0.6406249999999997  0.9609374999999999  0.6718750000000000
  0.4531249999999999  0.3046874999999999  0.6093750000000000
  0.4531249999999999  0.8046875000000000  0.6093750000000000
  0.9531250000000000  0.8046875000000000  0.6093750000000000
  0.2968749999999999  0.1328124999999999  0.6406250000000000
  0.2968749999999999  0.6328124999999999  0.6406250000000000
  0.7968749999999999  0.1328124999999999  0.6406250000000000
  0.1406249999999998  0.4609375000000000  0.6718750000000000
  0.9531250000000000  0.3046874999999999  0.6093750000000000
  0.7968749999999999  0.6328124999999999  0.6406250000000000
  0.3906249999999998  0.3359375000000001  0.4218750000000000
  0.4218750000000001  0.8203124999999999  0.5156250000000000
  0.3906249999999998  0.8359375000000000  0.4218750000000000
  0.8906249999999999  0.3359375000000001  0.4218750000000001
  0.8906249999999999  0.8359375000000000  0.4218750000000000
  0.2031250000000001  0.1796875000000000  0.3593750000000000
  0.2031250000000001  0.6796875000000000  0.3593750000000000
  0.7031250000000000  0.1796875000000000  0.3593750000000000
  0.7031249999999999  0.6796875000000000  0.3593750000000001
  0.0468750000000000  0.0078125000000000  0.3906250000000001
  0.0468750000000000  0.5078125000000000  0.3906250000000001
  0.9218750000000000  0.3203124999999999  0.5156250000000000
  0.5468749999999999  0.0078125000000000  0.3906250000000000
  0.2656249999999998  0.1484374999999999  0.5468750000000000
  0.2656249999999998  0.6484375000000000  0.5468750000000000
  0.7656249999999999  0.1484374999999999  0.5468750000000000
  0.7656249999999999  0.6484375000000000  0.5468750000000000
  0.0781250000000000  0.4921874999999999  0.4843750000000001
  0.0781249999999999  0.9921875000000001  0.4843750000000000
  0.5781250000000000  0.4921874999999999  0.4843750000000000
  0.5781249999999997  0.9921875000000001  0.4843750000000001
  0.4218749999999999  0.3203124999999999  0.5156250000000000
  0.5468750000000000  0.5078125000000000  0.3906250000000000
  0.9218750000000000  0.8203124999999999  0.5156250000000001
