Au Ru
 1.0000000000000000
    11.7373970911316796    0.0000000000000000    1.3132931721460874
     6.0585853312694864   16.6742412870588588   -1.0404433352277762
     0.0000000000000000    0.0000000000000000   26.5537110047877079
 Au  Ru 
  96  32
Direct
  0.5197368421052631  0.7763157894736844  0.4078947368421052
  0.2960526315789473  0.6447368421052633  0.5657894736842105
  0.2960526315789473  0.1447368421052633  0.5657894736842105
  0.9999999999999999  0.5000000000000000  0.5394736842105263
  0.0000000000000000  0.0000000000000000  0.5394736842105263
  0.4999999999999998  0.5000000000000000  0.5394736842105263
  0.4999999999999999  0.0000000000000000  0.5394736842105263
  0.7039473684210525  0.8552631578947369  0.5131578947368420
  0.7039473684210525  0.3552631578947369  0.5131578947368420
  0.2039473684210525  0.8552631578947369  0.5131578947368420
  0.2039473684210525  0.3552631578947369  0.5131578947368420
  0.9539473684210525  0.8552631578947369  0.5131578947368421
  0.9539473684210527  0.3552631578947369  0.5131578947368420
  0.4539473684210526  0.8552631578947369  0.5131578947368420
  0.7960526315789475  0.1447368421052633  0.5657894736842105
  0.4539473684210526  0.3552631578947369  0.5131578947368421
  0.6578947368421054  0.2105263157894737  0.4868421052631580
  0.1578947368421053  0.7105263157894737  0.4868421052631579
  0.1578947368421053  0.2105263157894737  0.4868421052631579
  0.8618421052631581  0.5657894736842106  0.4605263157894736
  0.8618421052631580  0.0657894736842106  0.4605263157894736
  0.3618421052631581  0.5657894736842106  0.4605263157894736
  0.3618421052631580  0.0657894736842106  0.4605263157894736
  0.6118421052631580  0.5657894736842106  0.4605263157894736
  0.6118421052631580  0.0657894736842106  0.4605263157894736
  0.1118421052631580  0.5657894736842106  0.4605263157894736
  0.1118421052631580  0.0657894736842106  0.4605263157894736
  0.8157894736842106  0.9210526315789475  0.4342105263157894
  0.8157894736842106  0.4210526315789473  0.4342105263157895
  0.6578947368421052  0.7105263157894737  0.4868421052631579
  0.3157894736842103  0.9210526315789475  0.4342105263157894
  0.7960526315789473  0.6447368421052633  0.5657894736842105
  0.0460526315789473  0.6447368421052633  0.5657894736842105
  0.0263157894736840  0.8684210526315793  0.6973684210526316
  0.0263157894736840  0.3684210526315792  0.6973684210526316
  0.7302631578947368  0.7236842105263160  0.6710526315789473
  0.7302631578947369  0.2236842105263160  0.6710526315789473
  0.2302631578947368  0.7236842105263160  0.6710526315789472
  0.2302631578947369  0.2236842105263160  0.6710526315789473
  0.9802631578947368  0.7236842105263160  0.6710526315789473
  0.9802631578947371  0.2236842105263160  0.6710526315789473
  0.4802631578947369  0.7236842105263160  0.6710526315789473
  0.4802631578947369  0.2236842105263160  0.6710526315789473
  0.6842105263157896  0.5789473684210527  0.6447368421052632
  0.6842105263157893  0.0789473684210527  0.6447368421052633
  0.1842105263157895  0.5789473684210527  0.6447368421052632
  0.0460526315789473  0.1447368421052633  0.5657894736842105
  0.1842105263157895  0.0789473684210527  0.6447368421052631
  0.8881578947368418  0.4342105263157897  0.6184210526315790
  0.3881578947368420  0.9342105263157896  0.6184210526315790
  0.3881578947368420  0.4342105263157897  0.6184210526315790
  0.6381578947368419  0.9342105263157896  0.6184210526315790
  0.6381578947368420  0.4342105263157897  0.6184210526315790
  0.1381578947368421  0.9342105263157896  0.6184210526315789
  0.1381578947368421  0.4342105263157897  0.6184210526315790
  0.8421052631578947  0.7894736842105263  0.5921052631578947
  0.8421052631578947  0.2894736842105263  0.5921052631578948
  0.3421052631578947  0.7894736842105263  0.5921052631578947
  0.3421052631578946  0.2894736842105263  0.5921052631578948
  0.5460526315789471  0.6447368421052633  0.5657894736842105
  0.5460526315789473  0.1447368421052633  0.5657894736842105
  0.8881578947368421  0.9342105263157896  0.6184210526315790
  0.3157894736842105  0.4210526315789473  0.4342105263157894
  0.5263157894736840  0.8684210526315793  0.6973684210526316
  0.5197368421052633  0.2763157894736842  0.4078947368421053
  0.5263157894736840  0.3684210526315792  0.6973684210526316
  0.0855263157894737  0.1973684210526316  0.3026315789473684
  0.0855263157894737  0.6973684210526316  0.3026315789473684
  0.5855263157894737  0.1973684210526316  0.3026315789473684
  0.5855263157894737  0.6973684210526316  0.3026315789473684
  0.3355263157894737  0.1973684210526316  0.3026315789473684
  0.3355263157894737  0.6973684210526316  0.3026315789473684
  0.8355263157894739  0.1973684210526316  0.3026315789473684
  0.1315789473684210  0.3421052631578949  0.3289473684210526
  0.1315789473684210  0.8421052631578948  0.3289473684210526
  0.6315789473684210  0.3421052631578949  0.3289473684210526
  0.6315789473684211  0.8421052631578948  0.3289473684210526
  0.4276315789473684  0.4868421052631580  0.3552631578947368
  0.4276315789473684  0.9868421052631580  0.3552631578947368
  0.9276315789473685  0.4868421052631580  0.3552631578947368
  0.8355263157894739  0.6973684210526316  0.3026315789473684
  0.1776315789473684  0.4868421052631580  0.3552631578947367
  0.9276315789473686  0.9868421052631580  0.3552631578947368
  0.0197368421052632  0.2763157894736842  0.4078947368421052
  0.7697368421052633  0.7763157894736845  0.4078947368421053
  0.7697368421052633  0.2763157894736843  0.4078947368421053
  0.2697368421052632  0.7763157894736845  0.4078947368421052
  0.2697368421052632  0.2763157894736843  0.4078947368421053
  0.9736842105263158  0.6315789473684212  0.3815789473684211
  0.0197368421052631  0.7763157894736844  0.4078947368421052
  0.4736842105263157  0.6315789473684212  0.3815789473684211
  0.4736842105263158  0.1315789473684211  0.3815789473684211
  0.6776315789473685  0.9868421052631580  0.3552631578947367
  0.6776315789473686  0.4868421052631580  0.3552631578947367
  0.1776315789473686  0.9868421052631580  0.3552631578947367
  0.9736842105263159  0.1315789473684211  0.3815789473684211
  0.9078947368421052  0.2105263157894737  0.4868421052631579
  0.4078947368421051  0.7105263157894737  0.4868421052631580
  0.4078947368421052  0.2105263157894737  0.4868421052631580
  0.5657894736842104  0.9210526315789475  0.4342105263157894
  0.5657894736842104  0.4210526315789473  0.4342105263157894
  0.0657894736842105  0.9210526315789475  0.4342105263157894
  0.0657894736842104  0.4210526315789473  0.4342105263157894
  0.2236842105263158  0.6315789473684212  0.3815789473684211
  0.7236842105263160  0.1315789473684211  0.3815789473684210
  0.2236842105263158  0.1315789473684211  0.3815789473684211
  0.8815789473684210  0.8421052631578948  0.3289473684210527
  0.8815789473684209  0.3421052631578949  0.3289473684210527
  0.3815789473684211  0.8421052631578948  0.3289473684210525
  0.7236842105263160  0.6315789473684212  0.3815789473684211
  0.9078947368421052  0.7105263157894737  0.4868421052631580
  0.7763157894736838  0.8684210526315793  0.6973684210526315
  0.2499999999999998  0.5000000000000000  0.5394736842105262
  0.7499999999999999  0.0000000000000000  0.5394736842105263
  0.7499999999999999  0.5000000000000000  0.5394736842105262
  0.0921052631578948  0.2894736842105263  0.5921052631578948
  0.0921052631578948  0.7894736842105263  0.5921052631578948
  0.5921052631578948  0.2894736842105263  0.5921052631578948
  0.5921052631578949  0.7894736842105263  0.5921052631578948
  0.4342105263157894  0.0789473684210527  0.6447368421052631
  0.4342105263157894  0.5789473684210527  0.6447368421052631
  0.9342105263157890  0.0789473684210527  0.6447368421052632
  0.9342105263157897  0.5789473684210527  0.6447368421052632
  0.2763157894736838  0.3684210526315792  0.6973684210526315
  0.2763157894736837  0.8684210526315793  0.6973684210526315
  0.7763157894736837  0.3684210526315792  0.6973684210526316
  0.2499999999999999  0.0000000000000000  0.5394736842105262
  0.3815789473684211  0.3421052631578949  0.3289473684210527
