Pt Sn
 1.0000000000000000
     8.2881419879259148    0.0000000000000000    0.0000009804250110
     4.1440698153953548   13.0603583383444697    0.9353235237176551
     0.0000000000000000    0.0000000000000000   27.0835242333318291
 Pt  Sn 
  32  32
Direct
  0.8680555833333333  0.8680555833333334  0.7083333333333334
  0.4513889166666666  0.7013889166666667  0.3194444444444444
  0.9513889166666667  0.2013889166666667  0.3194444444444444
  0.9513889166666667  0.7013889166666667  0.3194444444444444
  0.3680555833333333  0.3680555833333333  0.3750000000000000
  0.3680555833333332  0.8680555833333334  0.3750000000000000
  0.8680555833333331  0.3680555833333333  0.3750000000000000
  0.8680555833333333  0.8680555833333334  0.3750000000000000
  0.2847222500000000  0.0347222500000000  0.4305555555555556
  0.2847222500000001  0.5347222500000000  0.4305555555555556
  0.7847222500000001  0.0347222500000000  0.4305555555555556
  0.7847222500000001  0.5347222500000000  0.4305555555555556
  0.2013889166666667  0.2013889166666667  0.4861111111111110
  0.2013889166666666  0.7013889166666667  0.4861111111111110
  0.7013889166666667  0.2013889166666667  0.4861111111111110
  0.7013889166666668  0.7013889166666667  0.4861111111111110
  0.1180555833333333  0.3680555833333334  0.5416666666666666
  0.1180555833333333  0.8680555833333334  0.5416666666666666
  0.6180555833333332  0.3680555833333334  0.5416666666666666
  0.6180555833333330  0.8680555833333334  0.5416666666666666
  0.0347222500000001  0.0347222500000001  0.5972222222222222
  0.0347222500000001  0.5347222500000002  0.5972222222222222
  0.5347222500000002  0.0347222500000001  0.5972222222222222
  0.5347222500000001  0.5347222500000002  0.5972222222222221
  0.4513889166666668  0.2013889166666668  0.6527777777777777
  0.4513889166666666  0.7013889166666668  0.6527777777777777
  0.9513889166666667  0.2013889166666668  0.6527777777777777
  0.9513889166666667  0.7013889166666668  0.6527777777777776
  0.3680555833333333  0.3680555833333333  0.7083333333333334
  0.3680555833333332  0.8680555833333334  0.7083333333333335
  0.4513889166666667  0.2013889166666667  0.3194444444444444
  0.8680555833333331  0.3680555833333333  0.7083333333333335
  0.1319442499999999  0.3402777500000000  0.3101852222222222
  0.2708335833333335  0.5625000833333335  0.6620370000000001
  0.1319442500000001  0.8402777499999999  0.3101852222222222
  0.6319442500000000  0.3402777500000000  0.3101852222222222
  0.6319442500000000  0.8402777499999999  0.3101852222222222
  0.2708335833333334  0.0625000833333334  0.3287036666666667
  0.2708335833333333  0.5625000833333333  0.3287036666666667
  0.7708335833333334  0.0625000833333334  0.3287036666666667
  0.7708335833333334  0.5625000833333333  0.3287036666666667
  0.4652775833333333  0.1736110833333334  0.4212963333333333
  0.4652775833333333  0.6736110833333334  0.4212963333333333
  0.9652775833333332  0.1736110833333334  0.4212963333333333
  0.9652775833333335  0.6736110833333334  0.4212963333333333
  0.1041669166666667  0.3958334166666667  0.4398147777777778
  0.1041669166666668  0.8958334166666667  0.4398147777777778
  0.7708335833333336  0.0625000833333334  0.6620370000000001
  0.6041669166666666  0.3958334166666667  0.4398147777777778
  0.2986109166666667  0.0069444166666667  0.5324074444444444
  0.2986109166666667  0.5069444166666667  0.5324074444444444
  0.7986109166666665  0.0069444166666667  0.5324074444444444
  0.7986109166666668  0.5069444166666667  0.5324074444444444
  0.4375002500000001  0.2291667500000001  0.5509258888888888
  0.4375002500000001  0.7291667500000001  0.5509258888888888
  0.9375002500000000  0.2291667500000001  0.5509258888888888
  0.9375002499999998  0.7291667500000001  0.5509258888888888
  0.1319442500000000  0.3402777500000000  0.6435185555555556
  0.1319442500000000  0.8402777500000002  0.6435185555555556
  0.6319442500000000  0.3402777500000000  0.6435185555555557
  0.6319442500000000  0.8402777500000002  0.6435185555555556
  0.2708335833333335  0.0625000833333334  0.6620370000000001
  0.6041669166666666  0.8958334166666667  0.4398147777777778
  0.7708335833333333  0.5625000833333335  0.6620369999999999
