Hg In
 1.0000000000000000
     7.3031752548594424    0.0000000000000000    0.0000020086220177
    -0.0000000770305835    9.8263257947236671    0.4108191552144145
     0.0000000000000000    0.0000000000000000   28.5948628456224014
 Hg  In 
  16  16
Direct
  0.6250000000000001  0.7250000000000001  0.6500000000000001
  0.1250000000000001  0.7250000000000001  0.6500000000000002
  0.1250000000000001  0.2250000000000001  0.6500000000000001
  0.8750000000000001  0.8750000000000001  0.5500000000000000
  0.8750000000000000  0.3750000000000001  0.5500000000000000
  0.3750000000000000  0.8750000000000001  0.5500000000000000
  0.3750000000000000  0.3750000000000001  0.5500000000000000
  0.6250000000000000  0.5250000000000001  0.4500000000000001
  0.6250000000000000  0.0250000000000001  0.4500000000000001
  0.1250000000000000  0.5250000000000001  0.4500000000000001
  0.1250000000000000  0.0250000000000001  0.4500000000000002
  0.8749999999999999  0.6750000000000000  0.3500000000000000
  0.8750000000000000  0.1750000000000000  0.3500000000000001
  0.3749999999999999  0.6750000000000000  0.3500000000000000
  0.3749999999999999  0.1750000000000000  0.3500000000000000
  0.6250000000000001  0.2250000000000001  0.6500000000000001
  0.1250000000000001  0.4250000000000000  0.3500000000000000
  0.3750000000000001  0.9750000000000002  0.6500000000000000
  0.3750000000000001  0.4750000000000001  0.6500000000000000
  0.6250000000000001  0.6250000000000002  0.5500000000000000
  0.6250000000000001  0.1250000000000002  0.5500000000000002
  0.1250000000000002  0.6250000000000002  0.5500000000000002
  0.1250000000000002  0.1250000000000002  0.5500000000000000
  0.8750000000000000  0.7750000000000001  0.4500000000000000
  0.8750000000000001  0.2750000000000001  0.4500000000000001
  0.3750000000000000  0.7750000000000001  0.4500000000000001
  0.3750000000000000  0.2750000000000001  0.4500000000000000
  0.6250000000000000  0.9250000000000000  0.3500000000000000
  0.6250000000000001  0.4250000000000000  0.3500000000000000
  0.1250000000000001  0.9250000000000000  0.3500000000000000
  0.8750000000000000  0.4750000000000001  0.6500000000000000
  0.8750000000000001  0.9750000000000002  0.6500000000000001
