Nb V 
 1.0000000000000000
     5.7002683247731118    0.0000000000000000   -0.1320672763266561
     2.0221293135599603    9.9592813726705458   -0.8016709434144267
     0.0000000000000000    0.0000000000000000   27.1130197188843240
 Nb  V  
  20  20
Direct
  0.4374999999999999  0.4375000000000000  0.3333333333333334
  0.9375000000000001  0.4375000000000000  0.6666666666666666
  0.4375000000000001  0.9375000000000000  0.6666666666666666
  0.4375000000000002  0.4375000000000000  0.6666666666666666
  0.5625000000000001  0.5625000000000000  0.5833333333333333
  0.5625000000000000  0.0625000000000000  0.5833333333333334
  0.0625000000000000  0.5625000000000000  0.5833333333333334
  0.0625000000000000  0.0625000000000000  0.5833333333333334
  0.6875000000000001  0.6875000000000000  0.4999999999999998
  0.6875000000000001  0.1875000000000000  0.4999999999999999
  0.9375000000000002  0.9375000000000000  0.6666666666666666
  0.1875000000000001  0.1875000000000000  0.4999999999999999
  0.8125000000000001  0.8125000000000000  0.4166666666666666
  0.8124999999999999  0.3125000000000000  0.4166666666666666
  0.3125000000000001  0.8125000000000000  0.4166666666666667
  0.3125000000000000  0.3125000000000000  0.4166666666666667
  0.9375000000000001  0.9375000000000000  0.3333333333333334
  0.9375000000000001  0.4375000000000000  0.3333333333333334
  0.4374999999999999  0.9375000000000000  0.3333333333333334
  0.1875000000000001  0.6875000000000000  0.4999999999999999
  0.9375000000000002  0.9375000000000000  0.4999999999999999
  0.3125000000000001  0.3125000000000001  0.5833333333333333
  0.3125000000000001  0.8125000000000000  0.5833333333333333
  0.1875000000000001  0.6875000000000000  0.6666666666666666
  0.8125000000000001  0.8125000000000000  0.5833333333333331
  0.1875000000000001  0.1875000000000000  0.6666666666666666
  0.9375000000000001  0.4375000000000000  0.4999999999999999
  0.8125000000000001  0.3125000000000001  0.5833333333333333
  0.4375000000000001  0.9375000000000000  0.4999999999999999
  0.0625000000000000  0.5625000000000000  0.4166666666666667
  0.5625000000000001  0.5625000000000000  0.4166666666666667
  0.5625000000000001  0.0625000000000000  0.4166666666666667
  0.0625000000000000  0.0625000000000000  0.4166666666666666
  0.6875000000000001  0.6875000000000000  0.3333333333333333
  0.6875000000000001  0.1875000000000000  0.3333333333333334
  0.1875000000000000  0.6875000000000000  0.3333333333333334
  0.1875000000000000  0.1875000000000000  0.3333333333333334
  0.6875000000000001  0.1875000000000000  0.6666666666666666
  0.4375000000000002  0.4375000000000000  0.4999999999999999
  0.6875000000000001  0.6875000000000000  0.6666666666666667
