B  Mo Ru
 1.0000000000000000
     6.0296053347038079    0.0000000000000000    0.0000006795663536
     3.0148007578963907   13.9183712926296437   -1.7405937853312388
     0.0000000000000000    0.0000000000000000   26.1089554559112536
 B   Mo  Ru 
  64  31   1
Direct
  0.3862517724999999  0.2274964549999998  0.3818330970000001
  0.8862517724999998  0.2274964549999998  0.5818330970000002
  0.8862517724999998  0.7274964549999998  0.5818330970000000
  0.3637482274999999  0.2725035450000000  0.5181669030000001
  0.3637482275000000  0.7725035449999998  0.5181669030000001
  0.8637482274999998  0.2725035450000000  0.5181669030000001
  0.8637482274999998  0.7725035449999998  0.5181669030000001
  0.2509228625000000  0.4981542749999999  0.5332102850000001
  0.2509228625000000  0.9981542749999999  0.5332102850000001
  0.7509228625000000  0.4981542749999999  0.5332102850000002
  0.7509228624999998  0.9981542749999999  0.5332102850000002
  0.4990771374999998  0.0018457249999999  0.5667897150000001
  0.4990771374999998  0.5018457249999999  0.5667897150000001
  0.9990771374999998  0.0018457249999999  0.5667897150000002
  0.1362517725000001  0.2274964549999998  0.6818330970000001
  0.1362517725000000  0.7274964549999998  0.6818330970000003
  0.6362517725000001  0.2274964549999998  0.6818330970000002
  0.6362517725000000  0.7274964549999998  0.6818330970000002
  0.1137482274999999  0.2725035450000000  0.6181669030000002
  0.1137482274999999  0.7725035449999998  0.6181669030000002
  0.6137482274999999  0.2725035450000000  0.6181669030000002
  0.6137482274999999  0.7725035449999998  0.6181669030000002
  0.0009228624999999  0.4981542749999999  0.6332102850000000
  0.0009228624999998  0.9981542749999999  0.6332102850000000
  0.5009228625000000  0.4981542749999999  0.6332102850000000
  0.5009228624999998  0.9981542749999999  0.6332102850000000
  0.2490771374999998  0.0018457249999999  0.6667897150000002
  0.2490771374999999  0.5018457249999999  0.6667897149999999
  0.7490771374999997  0.0018457249999999  0.6667897150000001
  0.7490771374999997  0.5018457249999999  0.6667897150000001
  0.3862517724999998  0.7274964549999998  0.5818330970000000
  0.3862517724999999  0.2274964549999998  0.5818330970000000
  0.9990771374999997  0.5018457249999999  0.5667897150000002
  0.7490771374999999  0.0018457249999999  0.4667897150000001
  0.7490771374999997  0.5018457249999999  0.4667897150000001
  0.3862517725000000  0.7274964549999998  0.3818330970000001
  0.8862517725000001  0.2274964549999998  0.3818330970000001
  0.8862517724999998  0.7274964549999998  0.3818330970000001
  0.3637482275000001  0.2725035450000000  0.3181669030000001
  0.3637482275000001  0.7725035449999998  0.3181669030000001
  0.8637482275000001  0.2725035450000000  0.3181669030000001
  0.8637482274999998  0.7725035449999998  0.3181669030000001
  0.2509228625000000  0.4981542749999999  0.3332102850000001
  0.7509228625000000  0.4981542749999999  0.3332102850000001
  0.7509228625000003  0.9981542749999999  0.3332102850000001
  0.4990771375000000  0.0018457249999999  0.3667897150000000
  0.4990771375000001  0.5018457249999999  0.3667897150000000
  0.9990771375000002  0.0018457249999999  0.3667897150000001
  0.9990771374999999  0.5018457249999999  0.3667897150000001
  0.2509228625000000  0.9981542749999999  0.3332102850000001
  0.2490771374999999  0.0018457249999999  0.4667897150000000
  0.2490771374999999  0.5018457249999999  0.4667897150000000
  0.1362517725000001  0.2274964549999998  0.4818330970000002
  0.5009228625000001  0.9981542749999999  0.4332102850000001
  0.5009228625000000  0.4981542749999999  0.4332102850000001
  0.0009228625000000  0.9981542749999999  0.4332102850000001
  0.6137482274999999  0.7725035449999998  0.4181669030000001
  0.0009228625000000  0.4981542749999999  0.4332102850000001
  0.1137482275000000  0.7725035449999998  0.4181669030000001
  0.1137482275000000  0.2725035450000000  0.4181669030000000
  0.6362517725000000  0.7274964549999998  0.4818330970000000
  0.6362517725000001  0.2274964549999998  0.4818330970000000
  0.1362517725000000  0.7274964549999998  0.4818330970000002
  0.6137482275000000  0.2725035450000000  0.4181669030000001
  0.4432603550000001  0.6134792899999999  0.5075652860000001
  0.3067396449999999  0.8865207100000001  0.5924347140000000
  0.8067396449999998  0.3865207100000002  0.5924347140000000
  0.8067396449999998  0.8865207100000001  0.5924347140000000
  0.4432603550000000  0.1134792899999999  0.5075652860000001
  0.9432603550000001  0.1134792899999999  0.5075652860000001
  0.1932603550000000  0.6134792899999997  0.6075652860000001
  0.0567396449999997  0.3865207100000002  0.6924347140000001
  0.0567396449999997  0.8865207100000001  0.6924347140000003
  0.5567396449999997  0.8865207100000001  0.6924347140000001
  0.1932603550000001  0.1134792899999997  0.6075652860000000
  0.3067396449999999  0.3865207100000002  0.5924347140000000
  0.9432603549999999  0.6134792899999999  0.5075652860000001
  0.6932603549999998  0.6134792900000001  0.4075652860000001
  0.3067396449999999  0.3865207100000002  0.3924347140000001
  0.1932603549999998  0.6134792900000001  0.4075652860000001
  0.6932603550000002  0.1134792899999997  0.6075652860000001
  0.3067396449999999  0.8865207100000001  0.3924347140000001
  0.8067396449999998  0.3865207100000002  0.3924347140000001
  0.8067396449999998  0.8865207100000001  0.3924347140000001
  0.4432603549999999  0.1134792900000000  0.3075652860000000
  0.6932603549999999  0.1134792900000000  0.4075652860000001
  0.4432603550000001  0.6134792899999999  0.3075652860000000
  0.9432603549999999  0.6134792899999999  0.3075652860000000
  0.0567396449999999  0.3865207100000002  0.4924347140000002
  0.0567396449999999  0.8865207100000001  0.4924347140000002
  0.5567396449999998  0.3865207100000002  0.4924347140000001
  0.5567396449999998  0.8865207100000001  0.4924347140000001
  0.1932603549999999  0.1134792900000000  0.4075652860000001
  0.9432603550000001  0.1134792900000000  0.3075652860000000
  0.6932603549999999  0.6134792899999997  0.6075652860000001
  0.5567396449999997  0.3865207100000002  0.6924347140000001
