In Zn
 1.0000000000000000
    12.6953822273674213    0.0000000000000000   -1.5593248736717384
     6.6760677012235830   20.1880743610942019    1.8938447737050905
     0.0000000000000000    0.0000000000000000   26.2299772682022336
 In  Zn 
  84  28
Direct
  0.8602941176470590  0.7205882352941176  0.4264705882352942
  0.3750000000000001  0.7500000000000000  0.5441176470588236
  0.3750000000000001  0.2500000000000000  0.5441176470588236
  0.6250000000000001  0.7500000000000000  0.5441176470588236
  0.6249999999999999  0.2500000000000000  0.5441176470588236
  0.1250000000000000  0.7500000000000000  0.5441176470588235
  0.1250000000000000  0.2500000000000000  0.5441176470588235
  0.8088235294117651  0.6176470588235293  0.5147058823529412
  0.8088235294117647  0.1176470588235293  0.5147058823529411
  0.3088235294117649  0.6176470588235293  0.5147058823529411
  0.3088235294117648  0.1176470588235293  0.5147058823529412
  0.9926470588235295  0.9852941176470587  0.4852941176470589
  0.8750000000000002  0.2500000000000000  0.5441176470588236
  0.9926470588235295  0.4852941176470588  0.4852941176470589
  0.4926470588235295  0.4852941176470588  0.4852941176470589
  0.7426470588235295  0.9852941176470587  0.4852941176470588
  0.7426470588235293  0.4852941176470588  0.4852941176470589
  0.2426470588235294  0.9852941176470587  0.4852941176470588
  0.2426470588235295  0.4852941176470588  0.4852941176470589
  0.9264705882352944  0.8529411764705882  0.4558823529411765
  0.9264705882352943  0.3529411764705882  0.4558823529411765
  0.4264705882352941  0.8529411764705882  0.4558823529411765
  0.4264705882352942  0.3529411764705882  0.4558823529411765
  0.6102941176470590  0.7205882352941176  0.4264705882352941
  0.6102941176470590  0.2205882352941176  0.4264705882352942
  0.4926470588235297  0.9852941176470587  0.4852941176470588
  0.1102941176470588  0.7205882352941176  0.4264705882352940
  0.8750000000000003  0.7500000000000000  0.5441176470588236
  0.1911764705882353  0.8823529411764706  0.5735294117647058
  0.4558823529411766  0.9117647058823530  0.6911764705882351
  0.4558823529411765  0.4117647058823530  0.6911764705882351
  0.6397058823529415  0.7794117647058822  0.6617647058823529
  0.6397058823529415  0.2794117647058822  0.6617647058823529
  0.1397058823529414  0.7794117647058822  0.6617647058823529
  0.1397058823529414  0.2794117647058822  0.6617647058823529
  0.8897058823529417  0.7794117647058822  0.6617647058823529
  0.8897058823529416  0.2794117647058822  0.6617647058823529
  0.3897058823529414  0.7794117647058822  0.6617647058823528
  0.3897058823529415  0.2794117647058822  0.6617647058823529
  0.5735294117647062  0.6470588235294117  0.6323529411764706
  0.1911764705882354  0.3823529411764706  0.5735294117647058
  0.5735294117647062  0.1470588235294117  0.6323529411764706
  0.0735294117647061  0.1470588235294117  0.6323529411764706
  0.7573529411764708  0.5147058823529412  0.6029411764705882
  0.7573529411764708  0.0147058823529412  0.6029411764705883
  0.2573529411764707  0.5147058823529412  0.6029411764705882
  0.2573529411764706  0.0147058823529412  0.6029411764705883
  0.5073529411764709  0.5147058823529412  0.6029411764705883
  0.5073529411764709  0.0147058823529412  0.6029411764705883
  0.0073529411764707  0.5147058823529412  0.6029411764705882
  0.0073529411764707  0.0147058823529412  0.6029411764705882
  0.6911764705882355  0.8823529411764706  0.5735294117647058
  0.6911764705882356  0.3823529411764706  0.5735294117647058
  0.0735294117647061  0.6470588235294117  0.6323529411764706
  0.1102941176470588  0.2205882352941176  0.4264705882352940
  0.9558823529411767  0.9117647058823530  0.6911764705882352
  0.8602941176470590  0.2205882352941176  0.4264705882352942
  0.9558823529411766  0.4117647058823530  0.6911764705882352
  0.0955882352941177  0.1911764705882353  0.3088235294117648
  0.0955882352941177  0.6911764705882353  0.3088235294117648
  0.5955882352941176  0.1911764705882353  0.3088235294117648
  0.5955882352941179  0.6911764705882353  0.3088235294117648
  0.3455882352941176  0.1911764705882353  0.3088235294117648
  0.3455882352941176  0.6911764705882353  0.3088235294117647
  0.8455882352941176  0.6911764705882353  0.3088235294117648
  0.1617647058823529  0.3235294117647058  0.3382352941176471
  0.1617647058823530  0.8235294117647058  0.3382352941176471
  0.6617647058823529  0.3235294117647058  0.3382352941176471
  0.6617647058823534  0.8235294117647058  0.3382352941176471
  0.4779411764705884  0.4558823529411765  0.3676470588235295
  0.8455882352941176  0.1911764705882353  0.3088235294117648
  0.9779411764705883  0.4558823529411765  0.3676470588235294
  0.4779411764705884  0.9558823529411765  0.3676470588235294
  0.3602941176470589  0.2205882352941176  0.4264705882352942
  0.5441176470588236  0.5882352941176471  0.3970588235294118
  0.5441176470588236  0.0882352941176471  0.3970588235294118
  0.0441176470588236  0.5882352941176471  0.3970588235294118
  0.0441176470588236  0.0882352941176471  0.3970588235294118
  0.3602941176470589  0.7205882352941176  0.4264705882352942
  0.7279411764705882  0.4558823529411765  0.3676470588235293
  0.2279411764705882  0.9558823529411765  0.3676470588235294
  0.2279411764705883  0.4558823529411765  0.3676470588235294
  0.9779411764705884  0.9558823529411765  0.3676470588235295
  0.7279411764705882  0.9558823529411765  0.3676470588235294
  0.0588235294117647  0.1176470588235293  0.5147058823529411
  0.6764705882352942  0.8529411764705882  0.4558823529411764
  0.6764705882352943  0.3529411764705882  0.4558823529411765
  0.1764705882352941  0.8529411764705882  0.4558823529411765
  0.1764705882352941  0.3529411764705882  0.4558823529411765
  0.7941176470588237  0.5882352941176471  0.3970588235294119
  0.2941176470588237  0.0882352941176471  0.3970588235294118
  0.2941176470588237  0.5882352941176471  0.3970588235294118
  0.9117647058823530  0.8235294117647058  0.3382352941176471
  0.9117647058823529  0.3235294117647058  0.3382352941176470
  0.4117647058823529  0.8235294117647058  0.3382352941176471
  0.7941176470588237  0.0882352941176471  0.3970588235294119
  0.0588235294117648  0.6176470588235293  0.5147058823529411
  0.7058823529411766  0.9117647058823530  0.6911764705882352
  0.5588235294117649  0.6176470588235293  0.5147058823529412
  0.4411764705882355  0.3823529411764706  0.5735294117647058
  0.4411764705882357  0.8823529411764706  0.5735294117647058
  0.9411764705882355  0.3823529411764706  0.5735294117647058
  0.9411764705882355  0.8823529411764706  0.5735294117647058
  0.3235294117647058  0.1470588235294117  0.6323529411764706
  0.3235294117647058  0.6470588235294117  0.6323529411764706
  0.8235294117647060  0.1470588235294117  0.6323529411764706
  0.8235294117647060  0.6470588235294117  0.6323529411764705
  0.2058823529411767  0.4117647058823530  0.6911764705882352
  0.2058823529411768  0.9117647058823530  0.6911764705882352
  0.7058823529411766  0.4117647058823530  0.6911764705882352
  0.5588235294117649  0.1176470588235293  0.5147058823529412
  0.4117647058823529  0.3235294117647058  0.3382352941176471
